52 7 69 76 12 59 5 85 93 
26 92 83 61 84 95 48 
27 31 88 18 46 2 
82 40 21 55 4 24 80 
64 34 68 3 
42 14 16 44 86 97 60 70 
63 30 51 81 78 20 89 
72 23 67 41 56 74 100 
37 15 99 6 43 77 
33 71 90 10 13 58 
47 62 11 1 96 98 91 
50 65 49 17 94 
36 19 9 54 75 
39 73 57 87 25 
28 8 32 
45 79 66 35 
29 22 
53 
38 

